1000 50
484 907
644 1061
460 528
295 445
229 351
24 47
590 841
530 933
480 885
276 546
730 712
563 746
570 640
242 340
94 109
412 608
201 333
606 1196
669 1013
72 124
153 250
176 172
186 290
593 905
389 357
290 458
400 748
35 45
230 350
233 381
41 73
726 1063
598 783
397 634
23 33
169 322
6 11
232 394
652 769
609 671
613 723
398 412
19 36
481 581
641 1105
480 793
584 1096
273 526
161 202
388 671
